
Gurobi 11.0.3 (linux64) logging started Fri Nov 22 23:05:14 2024

Set parameter LogFile to value "/home/yihong/Coding/OR_SUC/SUC_results_bigM100000_thread4/case24_ieee_rts_theta0.1_epsilon0.025_gurobi_seed1180000_num_gen100_N_WDR100_load_scaling_factor1_exact_T20quadra_cost.txt"
Set parameter TimeLimit to value 3600
Gurobi Optimizer version 11.0.3 build v11.0.3rc0 (linux64 - "Ubuntu 20.04.6 LTS")

CPU model: AMD EPYC 7532 32-Core Processor, instruction set [SSE2|AVX|AVX2]
Thread count: 64 physical cores, 128 logical processors, using up to 4 threads

Optimize a model with 43303 rows, 25001 columns and 593882 nonzeros
Model fingerprint: 0xef353a5c
Model has 2000 quadratic constraints
Variable types: 22901 continuous, 2100 integer (2100 binary)
Coefficient statistics:
  Matrix range     [3e-04, 1e+05]
  QMatrix range    [2e-03, 8e-03]
  QLMatrix range   [2e-01, 6e+01]
  Objective range  [1e+00, 1e+00]
  Bounds range     [1e+00, 1e+00]
  RHS range        [1e+00, 1e+05]
Presolve removed 35096 rows and 10859 columns
Presolve time: 0.18s
Presolved: 8207 rows, 14142 columns, 52600 nonzeros
Presolved model has 2000 quadratic constraint(s)
Variable types: 12079 continuous, 2063 integer (2063 binary)

Root relaxation: objective 3.251771e+04, 6672 iterations, 0.15 seconds (0.22 work units)

    Nodes    |    Current Node    |     Objective Bounds      |     Work
 Expl Unexpl |  Obj  Depth IntInf | Incumbent    BestBd   Gap | It/Node Time

     0     0 32517.7090    0    3          - 32517.7090      -     -    0s
     0     0 271261.942    0  714          - 271261.942      -     -    0s
     0     0 271506.868    0  713          - 271506.868      -     -    0s
     0     0 504585.488    0  729          - 504585.488      -     -    0s
     0     0 504674.226    0  423          - 504674.226      -     -    1s
     0     0 505036.051    0  252          - 505036.051      -     -    1s
     0     0 505041.422    0  244          - 505041.422      -     -    1s
     0     0 505216.652    0  253          - 505216.652      -     -    1s
     0     0 505220.221    0  253          - 505220.221      -     -    1s
     0     2 505220.221    0  253          - 505220.221      -     -    1s
H  457   263                    505546.68470 505244.725  0.06%  25.1    3s
*  457   263             147    505546.68470 505244.725  0.06%  25.1    3s

Cutting planes:
  Gomory: 8
  Implied bound: 300
  MIR: 122
  Flow cover: 409

Explored 493 nodes (30386 simplex iterations) in 3.87 seconds (4.69 work units)
Thread count was 4 (of 128 available processors)

Solution count 2: 505547 505547 

Optimal solution found (tolerance 1.00e-03)
Warning: max constraint violation (4.6960e-07) exceeds tolerance
Best objective 5.055466847067e+05, best bound 5.052447254051e+05, gap 0.0597%
